c A SAT instance generated from a 4-CNF formula that had 30 clauses and 7 variables
p cnf 7 30
3 -1 -6 -5 0
7 4 -5 -3 0
-2 1 7 -6 0
-7 5 4 2 0
-7 -2 4 -1 0
-1 -6 2 3 0
5 6 2 -3 0
-7 -3 5 -1 0
-5 4 -3 6 0
7 -4 2 -3 0
-3 -4 1 -2 0
-3 4 -1 7 0
-7 -3 4 1 0
2 1 5 -6 0
1 -4 7 2 0
-2 -7 3 4 0
-5 4 3 7 0
7 -6 -1 5 0
-6 -3 -1 -4 0
-1 -2 3 -7 0
-6 -4 7 -2 0
-6 4 -3 1 0
7 -3 -4 -6 0
-3 1 4 5 0
-2 5 7 -3 0
4 7 2 -1 0
-1 5 4 -6 0
6 5 3 -7 0
-6 -7 4 1 0
7 -4 -2 1 0
